c Lingeling SAT Solver
c 
c Version ala b02aa1a04343558c4252b5f4a723be021964f652
c 
c Copyright (C) 2010-2012 Armin Biere JKU Linz Austria.
c All rights reserved.
c 
c released Sat Oct 13 14:05:26 CEST 2012
c compiled Sat Feb 16 02:48:12 EST 2013
c 
c gcc (Debian 4.4.5-8) 4.4.5
c -Wall -O3 -DNLGLOG -DNDEBUG -DNCHKSOL -DNLGLPICOSAT 
c Linux greencar2 2.6.32-5-amd64 x86_64
c 
c reading input file pb_200_10.cnf
c no embedded options
c found 'p cnf 176431 547385' header
c read 176431 variables, 547385 clauses, 1138371 literals in 0.0 seconds
c
c feature vars 176431
c feature lits.total 1138371
c feature lits.pos 607163
c feature lits.neg 531208
c feature clauses.total 547385
c feature clauses.unit 66691
c feature clauses.bin 385402
c feature clauses.trn 93892
c feature clauses.lrg 1400
c feature cog.val.min 1
c feature cog.val.avg 78590
c feature cog.val.max 169922
c feature cog.var.min 1
c feature cog.var.avg 88216
c feature cog.var.max 176430
c
c
c --abstime=0
c --acts=2
c --actavgmax=120
c --actstdmin=20
c --actstdmax=80
c --agile=23
c --bias=2
c --block=1
c --blkrtc=0
c --blkclslim=2000
c --blkocclim=2000
c --blkmaxeff=2147483647
c --blkmineff=10000000
c --blkreleff=20
c --card=0
c --cce=3
c --ccemaxeff=100000000
c --ccemineff=5000000
c --ccereleff=3
c --check=0
c --cgrclsr=1
c --cgrmaxority=20
c --cgrmaxeff=8000000
c --cgrmineff=200000
c --cgreleff=1
c --cgrexteq=1
c --cgrextand=1
c --cgrextunits=1
c --cgrextite=1
c --cgrextxor=1
c --cliff=1
c --cliffreleff=8
c --cliffmineff=10000000
c --cliffmaxeff=100000000
c --compact=0
c --decompose=1
c --defragint=10000000
c --defragfree=50
c --elim=1
c --elmrtc=0
c --elmblk=1
c --elmclslim=1000
c --elmocclim=1000
c --elmaxeff=100000000
c --elmineff=5000000
c --elmreleff=10
c --sleeponabort=0
c --exitonabort=0
c --flipping=1
c --flipint=2
c --flipdur=50
c --fliptop=1
c --force=0
c --gauss=1
c --gaussextrall=1
c --gaussmaxor=20
c --gaussexptrn=1
c --gaussmaxeff=50000000
c --gaussmineff=2000000
c --gaussreleff=2
c --gluescale=2
c --gluekeep=0
c --inprocessing=1
c --cintinc=10000
c --irrlim=20
c --lift=1
c --lftmaxeff=20000000
c --lftmineff=500000
c --lftreleff=6
c --lhbr=1
c --lkhd=1
c --clim=-1
c --mocint=1000
c --move=2
c --log=-1
c --otfs=1
c --phase=0
c --phaseneginit=0
c --plain=0
c --probe=1
c --prbasicmaxeff=100000000
c --prbasicmineff=1000000
c --prbasicreleff=10
c --prbasic=1
c --prbasicroundlim=9
c --queuemergelim=10000
c --queuefactor=833
c --queueinc=20
c --rmincpen=4
c --seed=0
c --smallirr=90
c --smallve=1
c --smallvevars=12
c --randec=1
c --randecint=1000
c --redfixed=0
c --redlbound=0
c --redlexpfac=10
c --redldoutfac=0
c --redloutinc=10000
c --redlinit=1000
c --redlinc=1000
c --redinoutinc=100
c --redlmininc=10
c --redlmaxinc=200
c --redlminrel=10
c --redlmaxrel=300
c --redlminabs=500
c --redlmaxabs=1000000
c --reduce=1
c --restart=2
c --restartint=5
c --rstinoutinc=110
c --simplify=1
c --simpdelay=100
c --simpen=4
c --sizepen=1000000
c --sizemaxpen=3
c --sortlits=0
c --syncint=111111
c --termint=122222
c --ternres=1
c --ternresrtc=0
c --trnrmineff=4000000
c --trnrmaxeff=40000000
c --trnreleff=10
c --transred=1
c --trdmineff=100000
c --trdmaxeff=2000000
c --trdreleff=10
c --unhide=1
c --unhdextstamp=1
c --unhdhbr=0
c --unhdmaxeff=20000000
c --unhdmineff=1000000
c --unhdreleff=4
c --unhdlnpr=3
c --unhdroundlim=5
c --verbose=1
c --witness=1
c [limits] no conflict limit
c [limits] simplification delayed by 100 to 100 conflicts
c 
c  seconds         irredundant          redundant clauses agility   height
c          variables clauses conflicts large binary ternary    glue         MB
c 
c *    0.0   96092   405250         0       0      0     0  55  0.0   0.0   38
c [cut-width] 135086, max 210134, min4 89828 at 75%, min10 25559 at 90%
c [decision-order] bias 1, old 1
c [queue-schedule-all-variables]
c s    0.0   96092   405250         0       0      0     0  55  0.0   0.0   38
c R    0.1   96092   405250        66      65      1     0  10  8.1 103.1   38
c [simplification-1] limit hit at 101 conflicts
c [simplification-1] simplification penalty of 4
c [ternres-1] limit 4000000 with penalty 0 = 0 + 0
c [ternres-1] all 96092 free variables schedulable
c [ternres-1] 4 ternary resolvents (0 bin, 4 trn)
c [ternres-1] fully completed ternary resolution
c T    0.2   96092   405250       101      91      4    10  10  6.2  81.8   40
c [gauss-1] limit 2000000 penalty 0 = 0 + 0
c [gauss-1] extracted 166753 xors of average arity 2.0
c [gauss-1] connected 333528 occurrences of 91900 variables (average 3.6)
c [gauss-1] limit 2000000 penalty 0 = 0 + 0
c d    0.7   44220   202242       101      91      4    10  10  6.2  81.8   17
c [gauss-1] exported 0 unary, 2 binary and 0 ternary equations
c G    0.7   44220   202242       101      91      4    10  10  6.2  81.8   17
c [basicprobe-1] limit 1000000 penalty 0 = 0 + 0
c [basicprobe-1-0] 3371 probes remain 8% after last round
c [basicprobe-1-0] 1 units = 1 failed (100%) + 0 lifted (0%)
c [basicprobe-1-0] removed 1 variables, found 2350 hbrs
c p    0.8   44219   202242       101      91   2346     9  10  6.2  81.8   20
c [cgrclsr-1] limit 200000 penalty 0 = 0 + 0
c [cgrclsr-1] all 44219 free variables schedulable
c [cgrclsr-1] fully completed congruence closure
c [lift-1] limit 500000 with penalty 0 = 0 + 0
c [lift-1] using 44219 probes 100%
c [lift-1] 44191 variables remain 100% (28 retained)
c [cliff-1] limit of 10000000 steps penalty 0 = 0 + 0
c [cliff-1] failed 5, lifted 6
c K    1.4   44127   202237       101      91  12963     9  10  6.2  81.8   21
c [unhide-1] limit 1000000 with penalty 0 = 0 + 0
c [unhide-1-2] 0 units, 8 failed, 21172 tauts, 0 hbrs, 582 literals
c u    1.6   44123   184579       101      90   8932     6  10  6.2  81.8   17
c [transred-1] limit 100000 with penalty 0 = 0 + 0
c t    1.6   44123   184578       101      90   8928     6  10  6.2  81.8   17
c [block-1] scheduling all variables this time
c [block-1] scheduled 44123 variables 100%
c [block-1] limit of 10000000 steps penalty 0 = 0 + 0
c [block-1] fully completed blocked clause elimination
c [block-1] transition to [ all 0 rem 0 ] state
c [block-1] eliminated 3400 blocked clauses
c k    1.7   44123   181178       101      90   8928  3406  10  6.2  81.8   17
c [cce-1] scheduling all variables this time
c [cce-1] limit of 10000000 steps penalty 0 = 0 + 0
c [cce-1] incomplete covered clause elimination 40114 not tried 91%
c [cce-1] transition to [ all 1 rem 1 ] state
c [cce-1] eliminated 142 covered clauses
c E    2.1   44096   181036       101      90  14254  3406  10  6.2  81.8   17
c [elim-1] scheduling all variables this time
c [elim-1] scheduled 44096 variables 100%
c [elim-1] limit of 5000000 steps penalty 0 = 0 + 0
c [elim-1] incomplete variable elimination 30380 not tried 69%
c [elim-1] transition to [ all 1 rem 1 ] state
c [elim-1] eliminated 5313 = 12% variables out of 44096
c e    3.0   38783   177635       101      68   5302   429  10  6.2  81.8   17
c [phase-1] phase bias: 2134 positive 12%, 16406 negative 88%
c [simplification-1] removed 57309 variables 59%
c [simplification-1] limit increments divided by 30
c [simplification-1] arithmetic increase of conflict limit interval by 333
c [simplification-1] new irredundant limit 1779504
c [simplification-1] new conflict limit 434
c [simplification-1] simplification penalty reduced to 3
c R    3.1   38783   177635       170     124   5308   435  11  5.1 104.2   20
c R    3.1   38783   177635       415     319   5317   469   7  4.6  76.1   20
c [simplification-2] limit hit at 434 conflicts
c [simplification-2] simplification penalty of 3
c [ternres-2] limit 4000000 with penalty 0 = 0 + 0
c [ternres-2] all 38783 free variables schedulable
c [ternres-2] 55 ternary resolvents (0 bin, 55 trn)
c [ternres-2] fully completed ternary resolution
c T    3.2   38783   177635       434     333   5320   526   7  4.5  76.7   21
c [gauss-2] limit 2000000 penalty 0 = 0 + 0
c [gauss-2] extracted 939 xors of average arity 3.0
c [gauss-2] connected 2815 occurrences of 1177 variables (average 2.4)
c [gauss-2] limit 2000000 penalty 0 = 0 + 0
c [gauss-2] fully completed
c [gauss-2] exported 0 unary, 0 binary and 0 ternary equations
c G    3.3   38783   177635       434     333   5320   526   7  4.5  76.7   17
c d    3.4   38782   177635       434     333   5318   525   7  4.5  76.7   17
c [basicprobe-2] limit 1000000 penalty 0 = 0 + 0
c [basicprobe-2-0] 3703 probes remain 10% after last round
c [basicprobe-2-0] 1 units = 1 failed (100%) + 0 lifted (0%)
c [basicprobe-2-0] removed 1 variables, found 1277 hbrs
c p    3.4   38781   177635       434     333   6595   524   7  4.5  76.7   20
c [cgrclsr-2] limit 100000 penalty 1 = 1 + 0
c [cgrclsr-2] all 38781 free variables schedulable
c [cgrclsr-2] fully completed congruence closure
c [lift-2] limit 250000 with penalty 1 = 1 + 0
c [lift-2] using 38754 probes 100%
c [lift-2] 38738 variables remain 100% (43 retained)
c [cliff-2] limit of 10000000 steps penalty 0 = 0 + 0
c [cliff-2] failed 3, lifted 0
c K    3.9   38717   177629       434     333   7586   524   7  4.5  76.7   20
c [unhide-2] limit 1000000 with penalty 0 = 0 + 0
c [unhide-2-4] 0 units, 4 failed, 2200 tauts, 0 hbrs, 379 literals
c u    4.1   38715   176432       434     332   6215   515   7  4.5  76.7   17
c [transred-3] limit 100000 with penalty 0 = 0 + 0
c t    4.1   38715   176431       434     332   6214   515   7  4.5  76.7   17
c [block-2] scheduling all variables this time
c [block-2] scheduled 38715 variables 100%
c [block-2] limit of 10000000 steps penalty 0 = 0 + 0
c [block-2] fully completed blocked clause elimination
c [block-2] transition to [ all 0 rem 0 ] state
c [block-2] eliminated 0 blocked clauses
c [cce-2] 36697 variables 95% will be scheduled this time
c [cce-2] limit of 10000000 steps penalty 0 = 0 + 0
c [cce-2] 36120 variables 93% remain to be tried next time
c [cce-2] transition to [ all 0 rem 1 ] state
c [cce-2] eliminated 530 covered clauses
c E    4.5   38701   175901       434     332   7139   515   7  4.5  76.7   17
c [elim-2] 30216 variables 78% will be scheduled this time
c [elim-2] scheduled 30216 variables 78%
c [elim-2] limit of 5000000 steps penalty 0 = 0 + 0
c [elim-2] 20793 variables 54% remain to be tried next time
c [elim-2] transition to [ all 0 rem 1 ] state
c [elim-2] eliminated 773 = 2% variables out of 38701
c 
c  seconds         irredundant          redundant clauses agility   height
c          variables clauses conflicts large binary ternary    glue         MB
c 
c e    5.5   37928   175661       434     322   5077   513   7  4.5  76.7   17
c [phase-2] phase bias: 167 positive 79%, 45 negative 21%
c [simplification-2] removed 855 variables 2%
c [simplification-2] limit increments divided by 2
c [simplification-2] arithmetic increase of conflict limit interval by 5000
c [simplification-2] new irredundant limit 1779504
c [simplification-2] new conflict limit 5767
c [simplification-2] simplification penalty reduced to 2
c R    5.6   37928   175661       981     777   5094   584   6  4.2  59.3   21
c i    5.7   37927   175660      1253     997   5105   614   7  4.1  56.6   21
c -    5.7   37927   175660      1263     502   5106   617   7  4.1  56.4   20
c i    5.8   37926   175659      1611     797   5117   654   5  4.0  52.9   21
c R    5.9   37926   175659      2293    1409   5125   713   8  4.2  51.4   21
c i    6.2   37925   175658      3893    2777   5184   860   7  4.3  50.0   21
c -    6.2   37925   175658      4163    1517   5194   876   5  4.4  49.2   21
c i    6.3   37924   175657      4244    1584   5198   885   4  4.4  49.0   21
c R    6.4   37880   175657      5224    2494   5211   940   5  4.6  46.4   21
c i    6.4   37879   175656      5337    2594   5216   946   5  4.6  45.9   21
c i    6.4   37833   175655      5343    2596   5217   947   5  4.6  45.9   21
c [simplification-3] limit hit at 5767 conflicts
c [simplification-3] simplification penalty of 2
c [ternres-3] limit 4000000 with penalty 0 = 0 + 0
c [ternres-3] all 37813 free variables schedulable
c [ternres-3] 382 ternary resolvents (8 bin, 374 trn)
c [ternres-3] fully completed ternary resolution
c T    6.6   37813   175655      5767    2984   5234  1343   7  4.7  45.0   21
c [gauss-3] limit 1000000 penalty 1 = 1 + 0
c [gauss-3] extracted 497 xors of average arity 2.9
c [gauss-3] connected 1466 occurrences of 824 variables (average 1.8)
c [gauss-3] limit 1000000 penalty 1 = 1 + 0
c [gauss-3] fully completed
c [gauss-3] exported 0 unary, 0 binary and 0 ternary equations
c G    6.7   37813   174667      5767    2881   5221  1335   7  4.7  45.0   17
c d    6.8   37806   174662      5767    2879   5211  1331   7  4.7  45.0   17
c [basicprobe-3] limit 1000000 penalty 0 = 0 + 0
c [basicprobe-3-0] 3299 probes remain 9% after last round
c [basicprobe-3-0] 13 units = 13 failed (100%) + 0 lifted (0%)
c [basicprobe-3-0] removed 13 variables, found 485 hbrs
c p    6.8   37793   174662      5767    2879   5696  1321   7  4.7  45.0   21
c [cgrclsr-3] limit 54807 based on 438456 irredundant literals
c [cgrclsr-3] all 37793 free variables schedulable
c [cgrclsr-3] fully completed congruence closure
c [cgrclsr-3] removed 1 variables
c C    6.9   37792   174498      5767    2878   5669  1316   7  4.7  45.0   17
c [lift-3] limit 125000 with penalty 2 = 2 + 0
c [lift-3] using 37751 probes 100%
c [lift-3] 37739 variables remain 100% (53 retained)
c [cliff-3] limit of 10000000 steps penalty 0 = 0 + 0
c [cliff-3] failed 11, lifted 0
c K    7.3   37758   174498      5767    2878   6283  1310   7  4.7  45.0   21
c [unhide-3] limit 1000000 with penalty 0 = 0 + 0
c [unhide-3-6] 0 units, 0 failed, 1017 tauts, 0 hbrs, 5867 literals
c u    7.5   37758   173799      5767    2825   5778  1203   7  4.7  45.0   21
c [transred-5] limit 339125 with penalty 0 = 0 + 0
c t    7.5   37758   173797      5767    2825   5774  1203   7  4.7  45.0   21
c [block-3] scheduling all variables this time
c [block-3] scheduled 37758 variables 100%
c [block-3] limit of 5000000 steps penalty 1 = 1 + 0
c [block-3] fully completed blocked clause elimination
c [block-3] transition to [ all 0 rem 0 ] state
c [block-3] eliminated 0 blocked clauses
c [cce-3] scheduling all variables this time
c [cce-3] limit of 10000000 steps penalty 0 = 0 + 0
c [cce-3] 34938 variables 93% remain to be tried next time
c [cce-3] transition to [ all 1 rem 1 ] state
c [cce-3] eliminated 280 covered clauses
c E    8.0   37757   173517      5767    2817   6234  1198   7  4.7  45.0   17
c [elim-3] scheduling all variables this time
c [elim-3] scheduled 37757 variables 100%
c [elim-3] limit of 5000000 steps penalty 0 = 0 + 0
c [elim-3] 20553 variables 54% remain to be tried next time
c [elim-3] transition to [ all 1 rem 1 ] state
c [elim-3] eliminated 579 = 2% variables out of 37757
c e    8.9   37178   172956      5767    2614   5542  1181   7  4.7  45.0   17
c [phase-3] phase bias: 105 positive 95%, 6 negative 5%
c [simplification-3] removed 635 variables 1%
c [simplification-3] no reduction of limit increments
c [simplification-3] arithmetic increase of conflict limit interval by 10000
c [simplification-3] new irredundant limit 1779504
c [simplification-3] new conflict limit 21100
c [simplification-3] simplification penalty reduced to 1
c i    9.1   37177   172955      6639    3439   5552  1210   7  4.9  43.8   21
c 
c  seconds         irredundant          redundant clauses agility   height
c          variables clauses conflicts large binary ternary    glue         MB
c 
c i    9.2   37176   172954      6872    3657   5557  1218   6  4.9  43.5   21
c i    9.2   37175   172953      6907    3685   5558  1223   6  4.8  43.3   21
c i    9.2   37174   172952      7316    4081   5561  1231   7  4.9  42.7   21
c i    9.3   37173   172951      7538    4292   5567  1234   5  5.4  42.9   21
c i    9.3   37154   172950      7559    4312   5567  1234   5  5.4  42.9   21
c i    9.3   37141   172949      7784    4527   5574  1235   5  5.4  42.9   21
c i    9.3   37140   172948      7799    4538   5575  1237   5  5.4  42.9   21
c i    9.3   37102   172947      7806    4542   5576  1238   5  5.4  42.8   21
c i    9.4   37099   172946      7958    4688   5579  1240   6  5.4  42.6   21
c i    9.4   37075   172945      7968    4695   5580  1241   6  5.4  42.6   21
c i    9.4   37074   172944      8087    4800   5586  1248   6  5.4  42.3   21
c -    9.4   37072   172944      8325    2538   5591  1255   6  5.4  41.9   21
c i    9.4   37071   172943      8338    2550   5591  1255   6  5.4  41.9   21
c i    9.5   37070   172942      8721    2916   5596  1265   6  5.5  41.3   21
c i    9.5   37016   172941      8802    2987   5599  1270   6  5.4  41.2   21
c i    9.6   37015   172940      9522    3667   5614  1293   6  5.5  40.2   21
c i    9.8   36976   172940     11053    5160   5623  1318   8  8.3  41.6   21
c i    9.9   36963   172940     11364    5446   5634  1328   7  8.2  41.2   22
c i    9.9   34750   172939     11365    5446   5634  1328   7  8.2  41.2   22
c i    9.9   34704   172938     11367    5447   5634  1328   7  8.2  41.2   22
c 0    9.9   34409   172938     11367    5447   5634  1328   7  8.2  41.2   22
c 
c  seconds         irredundant          redundant clauses agility   height
c          variables clauses conflicts large binary ternary    glue         MB
c 
c blkd: 3 bces, 3400 removed, 1579014 resolutions, 4351070 steps
c blkd: 3400 blocking literals 1%, 0 pure
c cces: 3 cces, 770 eliminated, 770 ate 100%, 0 abce 0%
c cces: 14142 probed, 0 lifted, 29 failed
c clff: 3 cliffs, 6 lifted, 19 failed
c clff: 10637 decisions, 30016716 steps
c clls: 1 sat, 0 simp, 0 freeze, 0 melt
c clls: 1685756 add, 0 assume,, 0 deref, 0 failed
c clls: 0 cassume, 0 mosat
c coll: 25 gcs, 0 rescored clauses
c cgrs: 3 count, 354807 esteps, 77944 csteps
c cgrs: 1 eqs, 0 units
c cgrs: 0 matched (0 ands 0%, 0 xors 0%, 0 ites 0%)
c cgrs: 0 simplified (0 ands 0%, 0 xors 0%, 0 ites 0%)
c cgrs: 2043 extracted (1751 ands 86%, 292 xors 14%, 0 ites 0%)
c dcps: 4 decompositions, 51881 equivalent 29%
c decs: 48830 decision, 50 random 0.102%
c decs: 12168 flipped 24.919% (in 69 phases)
c elms: 3 elims, 6665 eliminated 4%
c elms: 6665 small 100%, 0 large 0%
c elms: 34785 tried small, 6665 succeeded 19%, 28120 failed 81%
c elms: 0 subsumed, 0 strengthened, 0 blocked
c elms: 482611 copies, 326116 resolutions, 978692 ipos
c elms: 5 subchks, 0 strchks
c frcs: 0 computed, 19.2 - 80.8 average min-cut range
c gaus: 3 extractions, 168189 extracted, 2.0 size, 3 max
c gaus: exported 0 units, 2 binary and 0 ternary equations
c gaus: 0 gc, 10000046 steps, 5000023 extr 50%, 2390096 elim 24%
c glue: 8.2 avg, 2.7 scaled avg
c glue: 0 maxredglue=15 (0%)
c lift: 3 phases, 335 probed (112 level1 33%, 223 level2 67%)
c lift: 0 units, 0 equivalences, 2 implications
c hbrs: 22996 hbrs = 22996 trn 100% + 0 lrg 0%, 35 sub 0%
c lrnd: 11258 clauses, 6349 uips 56%, 35.4 length, 8.2 glue
c ints: 511 luby (67103 steps), 0 inout (0 steps)
c mins: 398591 learned lits, 37% minimized
c move: moved 4170, 770 binary 18%, 3400 ternary 82%
c otfs: str 372 dyn (274 red, 98 irr) 109 drv 29%, 263 rst 71%
c otfs: sub 1 dyn (1 red, 0 irr)
c phas: 3 computed, 18901 set, 2406 pos (13%), 16495 neg (87%)
c prbs: 3 basic, 1622 probed, 15 failed, 0 lifted
c prps: 19913840 props, 189 props/dec
c prps: 46% srch, 54% simp, 0% lkhd
c psns: 1304104 searches, 267808 hits, 21% hit rate
c queu: 85499 new, 30378 del, 120 maximum priority
c queu: 55086 merged, 52003 collected, 8 gcs
c queu: 11630 deprioritized, 40.2 lines on average
c reds: 3 count, 0 reset, 3 acts 100%, 0 exp 0%
c reds: 3 arithmetic 100%, 3 double 100%
c rmbd: 38 removed, 7 red 18%
c rsts: 496 restarts 97%, 14 skipped 3%
c rsts: 58 kept 11.7% average 35.3%
c simp: 3 count (0 ilim 0%, 0 plim 0%, 3 clim 100%)
c trnr: 3 count, 8 bin, 433 trn, 10217554 steps
c tops: 83476 fixed 47%, 26 iterations
c trds: 6 transitive reductions, 13 removed, 0 failed
c trds: 521 nodes, 720 edges, 541860 steps
c unhd: 3 count, 6 rounds, 5535092 steps
c unhd: 62 non-trivial sccs of average size 2.0
c unhd: 0 units, 0 bin, 0 trn, 0 lrg
c unhd: 12 failed, 12 stamp, 0 lits, 0 bin, 0 trn, 0 lrg
c unhd: 24389 tauts, 7 bin 0%, 908 trn 4%, 35 lrg 0%
c unhd: 24389 tauts, 23439 stamp 96%, 5962 red 24%
c unhd: 0 hbrs, 0 trn 0%, 0 lrg 0%, 0 red 0%
c unhd: 6828 strd, 0 bin 0%, 31 trn 0%, 6797 lrg 100%, 6808 red 100%
c vars: 34409 remaining 20% and 142022 removed 80% out of 176431
c vars: 83476 fixed 47%, 6665 eliminated 4%, 51881 equivalent 29%
c vsts: 106311237 visits, 53% srch, 47% simp, 0% lkhd
c vsts: 6.1 search visits per propagation 4972.1 per conflict
c wchs: 13038879 pushed, 4260716 enlarged, 38 defrags
c 
c scaledglue  added       reduced       forcing      resolved     conflicts
c 
c all     10361 100      4490 100    152588 100     51808 100      4333 100
c 
c  0          0   0         0   0         0   0         0   0         0   0 
c  1        229   2        85   2      9209   6      2017   4       149   3 
c  2       5130  50      1972  44    114740  75<    33690  65      2820  65 
c  3       3331  32<     1776  40<    21924  14     11496  22<      935  22<
c  4        838   8       390   9      3706   2      2278   4       219   5 
c  5        296   3       148   3      1212   1       757   1        69   2 
c  6        119   1        40   1       282   0       306   1        40   1 
c  7         72   1        28   1       510   0       293   1        22   1 
c  8         83   1        35   1       221   0       209   0        13   0 
c  9         31   0         7   0       183   0       109   0         8   0 
c 10         52   1         1   0       174   0       157   0        11   0 
c 11        153   1         7   0       395   0       438   1        37   1 
c 12         26   0         0   0        31   0        57   0        10   0 
c 13          1   0         1   0         1   0         1   0         0   0 
c 14          0   0         0   0         0   0         0   0         0   0 
c 15          0   0         0   0         0   0         0   0         0   0 
c 
c avg             2.9           2.8           2.2           2.5           2.5
c std             1.6           1.1           0.9           1.3           1.4
c 
c 48830 decisions, 11367 conflicts, 1153.7 conflicts/sec
c 19913840 propagations, 2.0 megaprops/sec
c 9.9 seconds, 44.4 MB
c 
c    0.444   5% analysis
c    0.308   3% block
c    0.092   1% bump
c    0.000   0% card
c    1.052  11% cce
c    1.008  10% cliff
c    0.012   0% cutwidth
c    0.016   0% decide
c    0.000   0% force
c    0.792   8% gc
c    0.308   3% cgrclsr
c    0.312   3% decomp
c    0.188   2% defrag
c    2.820  29% elim
c    0.824   8% gauss
c    0.216   2% lift
c    0.056   1% mincls
c    0.060   1% phase
c    0.156   2% probe
c    0.012   0% reduce
c    0.032   0% restart
c    0.128   1% ternres
c    0.032   0% transred
c    0.584   6% unhide
c ==================================
c    0.012   0% preprocessing     0%
c    7.800  79% inprocessing    100%
c ==================================
c    7.812  79% simplifying
c    0.000   0% lookahead
c    2.040  21% search
c ==================================
c    9.853 100% all
c
s UNSATISFIABLE
